(set-logic ALL)
(declare-fun seed0_key2 () String)
(declare-fun seed0_value2 () String)
(assert (and (or (and (and (and (and (and (and (and (and (and (and (and (and (and (and (and (and (and (and (and (and (and (and (and (and (and (and (and (and (and (and (and (and (and (and (and (and (and (and (and (and (and (and (and (and (and (and (and (and (and (and (and (and (and (not (= (ite (= (str.at (str.substr (str.substr seed0_value2 1 (- (str.len seed0_value2) 1)) 1 (- (str.len (str.substr seed0_value2 1 (- (str.len seed0_value2) 1))) 1)) 0) "\u{a}") 1 0) 0)) (= (ite (= (str.at (str.substr (str.substr seed0_value2 1 (- (str.len seed0_value2) 1)) 1 (- (str.len (str.substr seed0_value2 1 (- (str.len seed0_value2) 1))) 1)) 0) "\u{9}") 1 0) 0)) (= (ite (= (str.at (str.substr (str.substr seed0_value2 1 (- (str.len seed0_value2) 1)) 1 (- (str.len (str.substr seed0_value2 1 (- (str.len seed0_value2) 1))) 1)) 0) " ") 1 0) 0)) (= (ite (= (str.len (str.substr (str.substr seed0_value2 1 (- (str.len seed0_value2) 1)) 1 (- (str.len (str.substr seed0_value2 1 (- (str.len seed0_value2) 1))) 1))) 0) 1 0) 0)) (not (= (ite (= (str.at (str.substr seed0_value2 1 (- (str.len seed0_value2) 1)) 0) "\u{d}") 1 0) 0))) (= (ite (= (str.at (str.substr seed0_value2 1 (- (str.len seed0_value2) 1)) 0) "\u{a}") 1 0) 0)) (= (ite (= (str.at (str.substr seed0_value2 1 (- (str.len seed0_value2) 1)) 0) "\u{9}") 1 0) 0)) (= (ite (= (str.at (str.substr seed0_value2 1 (- (str.len seed0_value2) 1)) 0) " ") 1 0) 0)) (= (ite (= (str.len (str.substr seed0_value2 1 (- (str.len seed0_value2) 1))) 0) 1 0) 0)) (not (= (ite (= (str.at seed0_value2 0) "\u{b}") 1 0) 0))) (= (ite (= (str.at seed0_value2 0) "\u{d}") 1 0) 0)) (= (ite (= (str.at seed0_value2 0) "\u{a}") 1 0) 0)) (= (ite (= (str.at seed0_value2 0) "\u{9}") 1 0) 0)) (= (ite (= (str.at seed0_value2 0) " ") 1 0) 0)) (= (ite (= (str.len seed0_value2) 0) 1 0) 0)) (not (= (ite (= (str.indexof seed0_value2 "=" 0) (- 1)) 1 0) 0))) (= (ite (not (= (str.indexof seed0_value2 "=" 0) (- 1))) 1 0) 0)) (= (ite (str.contains seed0_value2 ",") 1 0) 0)) (= (ite (= (str.len seed0_value2) 0) 1 0) 0)) (not (= (ite (= seed0_key2 "cache-control") 1 0) 0))) (not (= (ite (= seed0_key2 "cache-control") 1 0) 0))) (>= 1 0)) (>= (- (str.len seed0_value2) 1) 0)) (>= 1 0)) (>= (- (str.len seed0_value2) 1) 0)) (>= 1 0)) (>= (- (str.len (str.substr seed0_value2 1 (- (str.len seed0_value2) 1))) 1) 0)) (>= 1 0)) (>= (- (str.len seed0_value2) 1) 0)) (>= 1 0)) (>= (- (str.len seed0_value2) 1) 0)) (>= 1 0)) (>= (- (str.len (str.substr seed0_value2 1 (- (str.len seed0_value2) 1))) 1) 0)) (>= 1 0)) (>= (- (str.len seed0_value2) 1) 0)) (>= 1 0)) (>= (- (str.len seed0_value2) 1) 0)) (>= 1 0)) (>= (- (str.len (str.substr seed0_value2 1 (- (str.len seed0_value2) 1))) 1) 0)) (>= 1 0)) (>= (- (str.len seed0_value2) 1) 0)) (>= 1 0)) (>= (- (str.len seed0_value2) 1) 0)) (>= 1 0)) (>= (- (str.len (str.substr seed0_value2 1 (- (str.len seed0_value2) 1))) 1) 0)) (>= 1 0)) (>= (- (str.len seed0_value2) 1) 0)) (>= 1 0)) (>= (- (str.len seed0_value2) 1) 0)) (>= 1 0)) (>= (- (str.len seed0_value2) 1) 0)) (>= 1 0)) (>= (- (str.len seed0_value2) 1) 0)) (>= 1 0)) (str.prefixof (str.++ seed0_value2 "w0J4") (str.++ seed0_value2 "bcCjfG5Zvrom2Wh"))) (or (>= (- (str.len seed0_value2) 1) 0) (and (str.suffixof (str.++ seed0_key2 "vodm") (str.++ seed0_value2 "sJEBakcRuf0qSFUYo2Pj")) (str.< (str.++ seed0_value2 "MOy5mHLIBZjgGxQtkwD") (str.++ seed0_value2 "ZxMOIpXElfJQS3gjL"))))))
(check-sat)
(exit)